17 -1 2 0 -6 -7 -8 -4 4 10 -1 1 11 -2 2 12 -3 3 9 -5 0
18 -2 3 0 -12 12 16 -10 -4 -17 17 15 16 -11 11 15 -1 1 5 -2 2 6 -3 -9 0
18 d 16 15 0
19 -1 0 17 18 13 14 0
19 d 17 18 13 14 0
20 -2 1 0 -2 19 2 6 -4 19 4 8 -10 -12 -1 19 1 5 -3 19 3 7 -9 -11 0
20 d 6 8 5 7 0
21 -2 0 19 20 0
21 d 19 20 0
22 3 1 0 21 1 2 0
22 d 1 2 0
23 1 0 21 22 4 3 0
23 d 22 4 3 0
24 3 -1 0 21 23 12 11 0
24 d 12 11 0
25 0 21 23 24 10 9 0
25 d 21 23 24 10 9 0
